predicate lex_lessChoco(array [int] of var int: x,array [int] of var int: y,bool: strict);
array [1..17] of int: X_INTRODUCED_228_ = [1,-1,-1,-1,-1,-1,-1,-1,-1,-1,-1,-1,-1,-1,-1,-1,-1];
var 1..3: X_INTRODUCED_0_;
var 1..4: X_INTRODUCED_1_;
var 1..4: X_INTRODUCED_2_;
var 1..3: X_INTRODUCED_3_;
var 1..4: X_INTRODUCED_4_;
var 1..5: X_INTRODUCED_5_;
var 1..5: X_INTRODUCED_6_;
var 1..4: X_INTRODUCED_7_;
var 1..4: X_INTRODUCED_8_;
var 1..5: X_INTRODUCED_9_;
var 1..5: X_INTRODUCED_10_;
var 1..4: X_INTRODUCED_11_;
var 1..3: X_INTRODUCED_12_;
var 1..4: X_INTRODUCED_13_;
var 1..4: X_INTRODUCED_14_;
var 1..3: X_INTRODUCED_15_;
var 16..80: objective:: output_var:: is_defined_var;
var bool: X_INTRODUCED_18_ ::var_is_introduced :: is_defined_var;
var bool: X_INTRODUCED_19_ ::var_is_introduced :: is_defined_var;
var bool: X_INTRODUCED_20_ ::var_is_introduced :: is_defined_var;
var bool: X_INTRODUCED_22_ ::var_is_introduced :: is_defined_var;
var bool: X_INTRODUCED_23_ ::var_is_introduced :: is_defined_var;
var bool: X_INTRODUCED_24_ ::var_is_introduced :: is_defined_var;
var bool: X_INTRODUCED_27_ ::var_is_introduced :: is_defined_var;
var bool: X_INTRODUCED_28_ ::var_is_introduced :: is_defined_var;
var bool: X_INTRODUCED_30_ ::var_is_introduced :: is_defined_var;
var bool: X_INTRODUCED_31_ ::var_is_introduced :: is_defined_var;
var bool: X_INTRODUCED_32_ ::var_is_introduced :: is_defined_var;
var bool: X_INTRODUCED_35_ ::var_is_introduced :: is_defined_var;
var bool: X_INTRODUCED_36_ ::var_is_introduced :: is_defined_var;
var bool: X_INTRODUCED_37_ ::var_is_introduced :: is_defined_var;
var bool: X_INTRODUCED_38_ ::var_is_introduced :: is_defined_var;
var bool: X_INTRODUCED_40_ ::var_is_introduced :: is_defined_var;
var bool: X_INTRODUCED_41_ ::var_is_introduced :: is_defined_var;
var bool: X_INTRODUCED_42_ ::var_is_introduced :: is_defined_var;
var bool: X_INTRODUCED_43_ ::var_is_introduced :: is_defined_var;
var bool: X_INTRODUCED_45_ ::var_is_introduced :: is_defined_var;
var bool: X_INTRODUCED_46_ ::var_is_introduced :: is_defined_var;
var bool: X_INTRODUCED_47_ ::var_is_introduced :: is_defined_var;
var bool: X_INTRODUCED_48_ ::var_is_introduced :: is_defined_var;
var bool: X_INTRODUCED_52_ ::var_is_introduced :: is_defined_var;
var bool: X_INTRODUCED_53_ ::var_is_introduced :: is_defined_var;
var bool: X_INTRODUCED_56_ ::var_is_introduced :: is_defined_var;
var bool: X_INTRODUCED_57_ ::var_is_introduced :: is_defined_var;
var bool: X_INTRODUCED_58_ ::var_is_introduced :: is_defined_var;
var bool: X_INTRODUCED_60_ ::var_is_introduced :: is_defined_var;
var bool: X_INTRODUCED_61_ ::var_is_introduced :: is_defined_var;
var bool: X_INTRODUCED_62_ ::var_is_introduced :: is_defined_var;
var bool: X_INTRODUCED_64_ ::var_is_introduced :: is_defined_var;
var bool: X_INTRODUCED_65_ ::var_is_introduced :: is_defined_var;
var bool: X_INTRODUCED_66_ ::var_is_introduced :: is_defined_var;
var bool: X_INTRODUCED_70_ ::var_is_introduced :: is_defined_var;
var bool: X_INTRODUCED_73_ ::var_is_introduced :: is_defined_var;
var bool: X_INTRODUCED_74_ ::var_is_introduced :: is_defined_var;
var bool: X_INTRODUCED_76_ ::var_is_introduced :: is_defined_var;
var bool: X_INTRODUCED_77_ ::var_is_introduced :: is_defined_var;
var bool: X_INTRODUCED_80_ ::var_is_introduced :: is_defined_var;
var bool: X_INTRODUCED_82_ ::var_is_introduced :: is_defined_var;
var bool: X_INTRODUCED_83_ ::var_is_introduced :: is_defined_var;
var bool: X_INTRODUCED_86_ ::var_is_introduced :: is_defined_var;
var bool: X_INTRODUCED_87_ ::var_is_introduced :: is_defined_var;
var bool: X_INTRODUCED_89_ ::var_is_introduced :: is_defined_var;
var bool: X_INTRODUCED_90_ ::var_is_introduced :: is_defined_var;
var bool: X_INTRODUCED_92_ ::var_is_introduced :: is_defined_var;
var bool: X_INTRODUCED_93_ ::var_is_introduced :: is_defined_var;
var bool: X_INTRODUCED_96_ ::var_is_introduced :: is_defined_var;
var bool: X_INTRODUCED_99_ ::var_is_introduced :: is_defined_var;
var bool: X_INTRODUCED_100_ ::var_is_introduced :: is_defined_var;
var bool: X_INTRODUCED_102_ ::var_is_introduced :: is_defined_var;
var bool: X_INTRODUCED_103_ ::var_is_introduced :: is_defined_var;
var bool: X_INTRODUCED_105_ ::var_is_introduced :: is_defined_var;
var bool: X_INTRODUCED_106_ ::var_is_introduced :: is_defined_var;
var bool: X_INTRODUCED_108_ ::var_is_introduced :: is_defined_var;
var bool: X_INTRODUCED_109_ ::var_is_introduced :: is_defined_var;
var bool: X_INTRODUCED_112_ ::var_is_introduced :: is_defined_var;
var bool: X_INTRODUCED_113_ ::var_is_introduced :: is_defined_var;
var bool: X_INTRODUCED_115_ ::var_is_introduced :: is_defined_var;
var bool: X_INTRODUCED_116_ ::var_is_introduced :: is_defined_var;
var bool: X_INTRODUCED_118_ ::var_is_introduced :: is_defined_var;
var bool: X_INTRODUCED_119_ ::var_is_introduced :: is_defined_var;
var bool: X_INTRODUCED_121_ ::var_is_introduced :: is_defined_var;
var bool: X_INTRODUCED_122_ ::var_is_introduced :: is_defined_var;
var bool: X_INTRODUCED_125_ ::var_is_introduced :: is_defined_var;
var bool: X_INTRODUCED_126_ ::var_is_introduced :: is_defined_var;
var bool: X_INTRODUCED_128_ ::var_is_introduced :: is_defined_var;
var bool: X_INTRODUCED_129_ ::var_is_introduced :: is_defined_var;
var bool: X_INTRODUCED_131_ ::var_is_introduced :: is_defined_var;
var bool: X_INTRODUCED_132_ ::var_is_introduced :: is_defined_var;
var bool: X_INTRODUCED_135_ ::var_is_introduced :: is_defined_var;
var bool: X_INTRODUCED_138_ ::var_is_introduced :: is_defined_var;
var bool: X_INTRODUCED_139_ ::var_is_introduced :: is_defined_var;
var bool: X_INTRODUCED_141_ ::var_is_introduced :: is_defined_var;
var bool: X_INTRODUCED_142_ ::var_is_introduced :: is_defined_var;
var bool: X_INTRODUCED_144_ ::var_is_introduced :: is_defined_var;
var bool: X_INTRODUCED_145_ ::var_is_introduced :: is_defined_var;
var bool: X_INTRODUCED_151_ ::var_is_introduced :: is_defined_var;
var bool: X_INTRODUCED_152_ ::var_is_introduced :: is_defined_var;
var bool: X_INTRODUCED_154_ ::var_is_introduced :: is_defined_var;
var bool: X_INTRODUCED_155_ ::var_is_introduced :: is_defined_var;
var bool: X_INTRODUCED_157_ ::var_is_introduced :: is_defined_var;
var bool: X_INTRODUCED_158_ ::var_is_introduced :: is_defined_var;
var bool: X_INTRODUCED_160_ ::var_is_introduced :: is_defined_var;
var bool: X_INTRODUCED_161_ ::var_is_introduced :: is_defined_var;
var bool: X_INTRODUCED_164_ ::var_is_introduced :: is_defined_var;
var bool: X_INTRODUCED_165_ ::var_is_introduced :: is_defined_var;
var bool: X_INTRODUCED_167_ ::var_is_introduced :: is_defined_var;
var bool: X_INTRODUCED_168_ ::var_is_introduced :: is_defined_var;
var bool: X_INTRODUCED_170_ ::var_is_introduced :: is_defined_var;
var bool: X_INTRODUCED_171_ ::var_is_introduced :: is_defined_var;
var bool: X_INTRODUCED_173_ ::var_is_introduced :: is_defined_var;
var bool: X_INTRODUCED_174_ ::var_is_introduced :: is_defined_var;
var bool: X_INTRODUCED_177_ ::var_is_introduced :: is_defined_var;
var bool: X_INTRODUCED_178_ ::var_is_introduced :: is_defined_var;
var bool: X_INTRODUCED_180_ ::var_is_introduced :: is_defined_var;
var bool: X_INTRODUCED_181_ ::var_is_introduced :: is_defined_var;
var bool: X_INTRODUCED_183_ ::var_is_introduced :: is_defined_var;
var bool: X_INTRODUCED_184_ ::var_is_introduced :: is_defined_var;
var bool: X_INTRODUCED_190_ ::var_is_introduced :: is_defined_var;
var bool: X_INTRODUCED_192_ ::var_is_introduced :: is_defined_var;
var bool: X_INTRODUCED_196_ ::var_is_introduced :: is_defined_var;
var bool: X_INTRODUCED_199_ ::var_is_introduced :: is_defined_var;
var bool: X_INTRODUCED_201_ ::var_is_introduced :: is_defined_var;
var bool: X_INTRODUCED_203_ ::var_is_introduced :: is_defined_var;
var bool: X_INTRODUCED_208_ ::var_is_introduced :: is_defined_var;
var bool: X_INTRODUCED_210_ ::var_is_introduced :: is_defined_var;
var bool: X_INTRODUCED_212_ ::var_is_introduced :: is_defined_var;
var bool: X_INTRODUCED_217_ ::var_is_introduced :: is_defined_var;
var bool: X_INTRODUCED_219_ ::var_is_introduced :: is_defined_var;
var bool: X_INTRODUCED_223_ ::var_is_introduced :: is_defined_var;
array [1..16] of var int: x:: output_array([1..4,1..4]) = [X_INTRODUCED_0_,X_INTRODUCED_1_,X_INTRODUCED_2_,X_INTRODUCED_3_,X_INTRODUCED_4_,X_INTRODUCED_5_,X_INTRODUCED_6_,X_INTRODUCED_7_,X_INTRODUCED_8_,X_INTRODUCED_9_,X_INTRODUCED_10_,X_INTRODUCED_11_,X_INTRODUCED_12_,X_INTRODUCED_13_,X_INTRODUCED_14_,X_INTRODUCED_15_];
array [1..16] of var int: X_INTRODUCED_225_ ::var_is_introduced  = [X_INTRODUCED_0_,X_INTRODUCED_1_,X_INTRODUCED_2_,X_INTRODUCED_3_,X_INTRODUCED_4_,X_INTRODUCED_5_,X_INTRODUCED_6_,X_INTRODUCED_7_,X_INTRODUCED_8_,X_INTRODUCED_9_,X_INTRODUCED_10_,X_INTRODUCED_11_,X_INTRODUCED_12_,X_INTRODUCED_13_,X_INTRODUCED_14_,X_INTRODUCED_15_];
array [1..17] of var int: X_INTRODUCED_227_ ::var_is_introduced  = [objective,X_INTRODUCED_0_,X_INTRODUCED_1_,X_INTRODUCED_2_,X_INTRODUCED_3_,X_INTRODUCED_4_,X_INTRODUCED_5_,X_INTRODUCED_6_,X_INTRODUCED_7_,X_INTRODUCED_8_,X_INTRODUCED_9_,X_INTRODUCED_10_,X_INTRODUCED_11_,X_INTRODUCED_12_,X_INTRODUCED_13_,X_INTRODUCED_14_,X_INTRODUCED_15_];
array [1..16] of var int: X_INTRODUCED_232_ ::var_is_introduced  = [X_INTRODUCED_12_,X_INTRODUCED_8_,X_INTRODUCED_4_,X_INTRODUCED_0_,X_INTRODUCED_13_,X_INTRODUCED_9_,X_INTRODUCED_5_,X_INTRODUCED_1_,X_INTRODUCED_14_,X_INTRODUCED_10_,X_INTRODUCED_6_,X_INTRODUCED_2_,X_INTRODUCED_15_,X_INTRODUCED_11_,X_INTRODUCED_7_,X_INTRODUCED_3_];
array [1..16] of var int: X_INTRODUCED_234_ ::var_is_introduced  = [X_INTRODUCED_15_,X_INTRODUCED_14_,X_INTRODUCED_13_,X_INTRODUCED_12_,X_INTRODUCED_11_,X_INTRODUCED_10_,X_INTRODUCED_9_,X_INTRODUCED_8_,X_INTRODUCED_7_,X_INTRODUCED_6_,X_INTRODUCED_5_,X_INTRODUCED_4_,X_INTRODUCED_3_,X_INTRODUCED_2_,X_INTRODUCED_1_,X_INTRODUCED_0_];
array [1..16] of var int: X_INTRODUCED_236_ ::var_is_introduced  = [X_INTRODUCED_3_,X_INTRODUCED_7_,X_INTRODUCED_11_,X_INTRODUCED_15_,X_INTRODUCED_2_,X_INTRODUCED_6_,X_INTRODUCED_10_,X_INTRODUCED_14_,X_INTRODUCED_1_,X_INTRODUCED_5_,X_INTRODUCED_9_,X_INTRODUCED_13_,X_INTRODUCED_0_,X_INTRODUCED_4_,X_INTRODUCED_8_,X_INTRODUCED_12_];
array [1..16] of var int: X_INTRODUCED_238_ ::var_is_introduced  = [X_INTRODUCED_12_,X_INTRODUCED_13_,X_INTRODUCED_14_,X_INTRODUCED_15_,X_INTRODUCED_8_,X_INTRODUCED_9_,X_INTRODUCED_10_,X_INTRODUCED_11_,X_INTRODUCED_4_,X_INTRODUCED_5_,X_INTRODUCED_6_,X_INTRODUCED_7_,X_INTRODUCED_0_,X_INTRODUCED_1_,X_INTRODUCED_2_,X_INTRODUCED_3_];
array [1..16] of var int: X_INTRODUCED_240_ ::var_is_introduced  = [X_INTRODUCED_3_,X_INTRODUCED_2_,X_INTRODUCED_1_,X_INTRODUCED_0_,X_INTRODUCED_7_,X_INTRODUCED_6_,X_INTRODUCED_5_,X_INTRODUCED_4_,X_INTRODUCED_11_,X_INTRODUCED_10_,X_INTRODUCED_9_,X_INTRODUCED_8_,X_INTRODUCED_15_,X_INTRODUCED_14_,X_INTRODUCED_13_,X_INTRODUCED_12_];
array [1..16] of var int: X_INTRODUCED_242_ ::var_is_introduced  = [X_INTRODUCED_15_,X_INTRODUCED_11_,X_INTRODUCED_7_,X_INTRODUCED_3_,X_INTRODUCED_14_,X_INTRODUCED_10_,X_INTRODUCED_6_,X_INTRODUCED_2_,X_INTRODUCED_13_,X_INTRODUCED_9_,X_INTRODUCED_5_,X_INTRODUCED_1_,X_INTRODUCED_12_,X_INTRODUCED_8_,X_INTRODUCED_4_,X_INTRODUCED_0_];
array [1..16] of var int: X_INTRODUCED_244_ ::var_is_introduced  = [X_INTRODUCED_0_,X_INTRODUCED_4_,X_INTRODUCED_8_,X_INTRODUCED_12_,X_INTRODUCED_1_,X_INTRODUCED_5_,X_INTRODUCED_9_,X_INTRODUCED_13_,X_INTRODUCED_2_,X_INTRODUCED_6_,X_INTRODUCED_10_,X_INTRODUCED_14_,X_INTRODUCED_3_,X_INTRODUCED_7_,X_INTRODUCED_11_,X_INTRODUCED_15_];
constraint array_bool_or([X_INTRODUCED_18_,X_INTRODUCED_19_,X_INTRODUCED_20_],true);
constraint array_bool_or([X_INTRODUCED_22_,X_INTRODUCED_23_,X_INTRODUCED_24_],true);
constraint array_bool_or([X_INTRODUCED_30_,X_INTRODUCED_31_,X_INTRODUCED_32_],true);
constraint array_bool_or([X_INTRODUCED_35_,X_INTRODUCED_36_,X_INTRODUCED_37_,X_INTRODUCED_38_],true);
constraint array_bool_or([X_INTRODUCED_40_,X_INTRODUCED_41_,X_INTRODUCED_42_,X_INTRODUCED_43_],true);
constraint array_bool_or([X_INTRODUCED_45_,X_INTRODUCED_46_,X_INTRODUCED_47_,X_INTRODUCED_48_],true);
constraint array_bool_or([X_INTRODUCED_19_,X_INTRODUCED_56_,X_INTRODUCED_57_,X_INTRODUCED_58_],true);
constraint array_bool_or([X_INTRODUCED_23_,X_INTRODUCED_60_,X_INTRODUCED_61_,X_INTRODUCED_62_],true);
constraint array_bool_or([X_INTRODUCED_27_,X_INTRODUCED_64_,X_INTRODUCED_65_,X_INTRODUCED_66_],true);
constraint array_bool_or([X_INTRODUCED_37_,X_INTRODUCED_73_,X_INTRODUCED_74_],true);
constraint array_bool_or([X_INTRODUCED_42_,X_INTRODUCED_76_,X_INTRODUCED_77_],true);
constraint array_bool_or([X_INTRODUCED_52_,X_INTRODUCED_82_,X_INTRODUCED_83_],true);
constraint array_bool_or([X_INTRODUCED_36_,X_INTRODUCED_38_,X_INTRODUCED_86_,X_INTRODUCED_87_],true);
constraint array_bool_or([X_INTRODUCED_41_,X_INTRODUCED_43_,X_INTRODUCED_89_,X_INTRODUCED_90_],true);
constraint array_bool_or([X_INTRODUCED_46_,X_INTRODUCED_48_,X_INTRODUCED_92_,X_INTRODUCED_93_],true);
constraint array_bool_or([X_INTRODUCED_19_,X_INTRODUCED_20_,X_INTRODUCED_58_,X_INTRODUCED_99_,X_INTRODUCED_100_],true);
constraint array_bool_or([X_INTRODUCED_23_,X_INTRODUCED_24_,X_INTRODUCED_62_,X_INTRODUCED_102_,X_INTRODUCED_103_],true);
constraint array_bool_or([X_INTRODUCED_27_,X_INTRODUCED_28_,X_INTRODUCED_66_,X_INTRODUCED_105_,X_INTRODUCED_106_],true);
constraint array_bool_or([X_INTRODUCED_31_,X_INTRODUCED_32_,X_INTRODUCED_70_,X_INTRODUCED_108_,X_INTRODUCED_109_],true);
constraint array_bool_or([X_INTRODUCED_37_,X_INTRODUCED_38_,X_INTRODUCED_74_,X_INTRODUCED_112_,X_INTRODUCED_113_],true);
constraint array_bool_or([X_INTRODUCED_42_,X_INTRODUCED_43_,X_INTRODUCED_77_,X_INTRODUCED_115_,X_INTRODUCED_116_],true);
constraint array_bool_or([X_INTRODUCED_47_,X_INTRODUCED_48_,X_INTRODUCED_80_,X_INTRODUCED_118_,X_INTRODUCED_119_],true);
constraint array_bool_or([X_INTRODUCED_52_,X_INTRODUCED_53_,X_INTRODUCED_83_,X_INTRODUCED_121_,X_INTRODUCED_122_],true);
constraint array_bool_or([X_INTRODUCED_57_,X_INTRODUCED_58_,X_INTRODUCED_125_,X_INTRODUCED_126_],true);
constraint array_bool_or([X_INTRODUCED_61_,X_INTRODUCED_62_,X_INTRODUCED_128_,X_INTRODUCED_129_],true);
constraint array_bool_or([X_INTRODUCED_65_,X_INTRODUCED_66_,X_INTRODUCED_131_,X_INTRODUCED_132_],true);
constraint array_bool_or([X_INTRODUCED_20_,X_INTRODUCED_100_,X_INTRODUCED_138_,X_INTRODUCED_139_],true);
constraint array_bool_or([X_INTRODUCED_24_,X_INTRODUCED_103_,X_INTRODUCED_141_,X_INTRODUCED_142_],true);
constraint array_bool_or([X_INTRODUCED_28_,X_INTRODUCED_106_,X_INTRODUCED_144_,X_INTRODUCED_145_],true);
constraint array_bool_or([X_INTRODUCED_38_,X_INTRODUCED_87_,X_INTRODUCED_113_,X_INTRODUCED_151_,X_INTRODUCED_152_],true);
constraint array_bool_or([X_INTRODUCED_43_,X_INTRODUCED_90_,X_INTRODUCED_116_,X_INTRODUCED_154_,X_INTRODUCED_155_],true);
constraint array_bool_or([X_INTRODUCED_48_,X_INTRODUCED_93_,X_INTRODUCED_119_,X_INTRODUCED_157_,X_INTRODUCED_158_],true);
constraint array_bool_or([X_INTRODUCED_53_,X_INTRODUCED_96_,X_INTRODUCED_122_,X_INTRODUCED_160_,X_INTRODUCED_161_],true);
constraint array_bool_or([X_INTRODUCED_58_,X_INTRODUCED_100_,X_INTRODUCED_126_,X_INTRODUCED_164_,X_INTRODUCED_165_],true);
constraint array_bool_or([X_INTRODUCED_62_,X_INTRODUCED_103_,X_INTRODUCED_129_,X_INTRODUCED_167_,X_INTRODUCED_168_],true);
constraint array_bool_or([X_INTRODUCED_66_,X_INTRODUCED_106_,X_INTRODUCED_132_,X_INTRODUCED_170_,X_INTRODUCED_171_],true);
constraint array_bool_or([X_INTRODUCED_70_,X_INTRODUCED_109_,X_INTRODUCED_135_,X_INTRODUCED_173_,X_INTRODUCED_174_],true);
constraint array_bool_or([X_INTRODUCED_74_,X_INTRODUCED_113_,X_INTRODUCED_177_,X_INTRODUCED_178_],true);
constraint array_bool_or([X_INTRODUCED_77_,X_INTRODUCED_116_,X_INTRODUCED_180_,X_INTRODUCED_181_],true);
constraint array_bool_or([X_INTRODUCED_80_,X_INTRODUCED_119_,X_INTRODUCED_183_,X_INTRODUCED_184_],true);
constraint array_bool_or([X_INTRODUCED_87_,X_INTRODUCED_152_,X_INTRODUCED_190_],true);
constraint array_bool_or([X_INTRODUCED_90_,X_INTRODUCED_155_,X_INTRODUCED_192_],true);
constraint array_bool_or([X_INTRODUCED_96_,X_INTRODUCED_161_,X_INTRODUCED_196_],true);
constraint array_bool_or([X_INTRODUCED_100_,X_INTRODUCED_139_,X_INTRODUCED_165_,X_INTRODUCED_199_],true);
constraint array_bool_or([X_INTRODUCED_103_,X_INTRODUCED_142_,X_INTRODUCED_168_,X_INTRODUCED_201_],true);
constraint array_bool_or([X_INTRODUCED_106_,X_INTRODUCED_145_,X_INTRODUCED_171_,X_INTRODUCED_203_],true);
constraint array_bool_or([X_INTRODUCED_113_,X_INTRODUCED_152_,X_INTRODUCED_178_,X_INTRODUCED_208_],true);
constraint array_bool_or([X_INTRODUCED_116_,X_INTRODUCED_155_,X_INTRODUCED_181_,X_INTRODUCED_210_],true);
constraint array_bool_or([X_INTRODUCED_119_,X_INTRODUCED_158_,X_INTRODUCED_184_,X_INTRODUCED_212_],true);
constraint array_bool_or([X_INTRODUCED_126_,X_INTRODUCED_165_,X_INTRODUCED_217_],true);
constraint array_bool_or([X_INTRODUCED_129_,X_INTRODUCED_168_,X_INTRODUCED_219_],true);
constraint array_bool_or([X_INTRODUCED_135_,X_INTRODUCED_174_,X_INTRODUCED_223_],true);
constraint int_lin_eq(X_INTRODUCED_228_,X_INTRODUCED_227_,0):: defines_var(objective);
constraint lex_lessChoco(X_INTRODUCED_225_,X_INTRODUCED_232_,false);
constraint lex_lessChoco(X_INTRODUCED_225_,X_INTRODUCED_234_,false);
constraint lex_lessChoco(X_INTRODUCED_225_,X_INTRODUCED_236_,false);
constraint lex_lessChoco(X_INTRODUCED_225_,X_INTRODUCED_238_,false);
constraint lex_lessChoco(X_INTRODUCED_225_,X_INTRODUCED_240_,false);
constraint lex_lessChoco(X_INTRODUCED_225_,X_INTRODUCED_242_,false);
constraint lex_lessChoco(X_INTRODUCED_225_,X_INTRODUCED_244_,false);
constraint int_le_reif(X_INTRODUCED_0_,1,X_INTRODUCED_18_):: defines_var(X_INTRODUCED_18_);
constraint int_eq_reif(X_INTRODUCED_1_,1,X_INTRODUCED_19_):: defines_var(X_INTRODUCED_19_);
constraint int_eq_reif(X_INTRODUCED_4_,1,X_INTRODUCED_20_):: defines_var(X_INTRODUCED_20_);
constraint int_le_reif(X_INTRODUCED_0_,2,X_INTRODUCED_22_):: defines_var(X_INTRODUCED_22_);
constraint int_eq_reif(X_INTRODUCED_1_,2,X_INTRODUCED_23_):: defines_var(X_INTRODUCED_23_);
constraint int_eq_reif(X_INTRODUCED_4_,2,X_INTRODUCED_24_):: defines_var(X_INTRODUCED_24_);
constraint int_eq_reif(X_INTRODUCED_1_,3,X_INTRODUCED_27_):: defines_var(X_INTRODUCED_27_);
constraint int_eq_reif(X_INTRODUCED_4_,3,X_INTRODUCED_28_):: defines_var(X_INTRODUCED_28_);
constraint int_le_reif(X_INTRODUCED_0_,4,X_INTRODUCED_30_):: defines_var(X_INTRODUCED_30_);
constraint int_eq_reif(X_INTRODUCED_1_,4,X_INTRODUCED_31_):: defines_var(X_INTRODUCED_31_);
constraint int_eq_reif(X_INTRODUCED_4_,4,X_INTRODUCED_32_):: defines_var(X_INTRODUCED_32_);
constraint int_le_reif(X_INTRODUCED_1_,1,X_INTRODUCED_35_):: defines_var(X_INTRODUCED_35_);
constraint int_eq_reif(X_INTRODUCED_0_,1,X_INTRODUCED_36_):: defines_var(X_INTRODUCED_36_);
constraint int_eq_reif(X_INTRODUCED_2_,1,X_INTRODUCED_37_):: defines_var(X_INTRODUCED_37_);
constraint int_eq_reif(X_INTRODUCED_5_,1,X_INTRODUCED_38_):: defines_var(X_INTRODUCED_38_);
constraint int_le_reif(X_INTRODUCED_1_,2,X_INTRODUCED_40_):: defines_var(X_INTRODUCED_40_);
constraint int_eq_reif(X_INTRODUCED_0_,2,X_INTRODUCED_41_):: defines_var(X_INTRODUCED_41_);
constraint int_eq_reif(X_INTRODUCED_2_,2,X_INTRODUCED_42_):: defines_var(X_INTRODUCED_42_);
constraint int_eq_reif(X_INTRODUCED_5_,2,X_INTRODUCED_43_):: defines_var(X_INTRODUCED_43_);
constraint int_le_reif(X_INTRODUCED_1_,3,X_INTRODUCED_45_):: defines_var(X_INTRODUCED_45_);
constraint int_eq_reif(X_INTRODUCED_0_,3,X_INTRODUCED_46_):: defines_var(X_INTRODUCED_46_);
constraint int_eq_reif(X_INTRODUCED_2_,3,X_INTRODUCED_47_):: defines_var(X_INTRODUCED_47_);
constraint int_eq_reif(X_INTRODUCED_5_,3,X_INTRODUCED_48_):: defines_var(X_INTRODUCED_48_);
constraint int_eq_reif(X_INTRODUCED_2_,4,X_INTRODUCED_52_):: defines_var(X_INTRODUCED_52_);
constraint int_eq_reif(X_INTRODUCED_5_,4,X_INTRODUCED_53_):: defines_var(X_INTRODUCED_53_);
constraint int_le_reif(X_INTRODUCED_2_,1,X_INTRODUCED_56_):: defines_var(X_INTRODUCED_56_);
constraint int_eq_reif(X_INTRODUCED_3_,1,X_INTRODUCED_57_):: defines_var(X_INTRODUCED_57_);
constraint int_eq_reif(X_INTRODUCED_6_,1,X_INTRODUCED_58_):: defines_var(X_INTRODUCED_58_);
constraint int_le_reif(X_INTRODUCED_2_,2,X_INTRODUCED_60_):: defines_var(X_INTRODUCED_60_);
constraint int_eq_reif(X_INTRODUCED_3_,2,X_INTRODUCED_61_):: defines_var(X_INTRODUCED_61_);
constraint int_eq_reif(X_INTRODUCED_6_,2,X_INTRODUCED_62_):: defines_var(X_INTRODUCED_62_);
constraint int_le_reif(X_INTRODUCED_2_,3,X_INTRODUCED_64_):: defines_var(X_INTRODUCED_64_);
constraint int_eq_reif(X_INTRODUCED_3_,3,X_INTRODUCED_65_):: defines_var(X_INTRODUCED_65_);
constraint int_eq_reif(X_INTRODUCED_6_,3,X_INTRODUCED_66_):: defines_var(X_INTRODUCED_66_);
constraint int_eq_reif(X_INTRODUCED_6_,4,X_INTRODUCED_70_):: defines_var(X_INTRODUCED_70_);
constraint int_le_reif(X_INTRODUCED_3_,1,X_INTRODUCED_73_):: defines_var(X_INTRODUCED_73_);
constraint int_eq_reif(X_INTRODUCED_7_,1,X_INTRODUCED_74_):: defines_var(X_INTRODUCED_74_);
constraint int_le_reif(X_INTRODUCED_3_,2,X_INTRODUCED_76_):: defines_var(X_INTRODUCED_76_);
constraint int_eq_reif(X_INTRODUCED_7_,2,X_INTRODUCED_77_):: defines_var(X_INTRODUCED_77_);
constraint int_eq_reif(X_INTRODUCED_7_,3,X_INTRODUCED_80_):: defines_var(X_INTRODUCED_80_);
constraint int_le_reif(X_INTRODUCED_3_,4,X_INTRODUCED_82_):: defines_var(X_INTRODUCED_82_);
constraint int_eq_reif(X_INTRODUCED_7_,4,X_INTRODUCED_83_):: defines_var(X_INTRODUCED_83_);
constraint int_le_reif(X_INTRODUCED_4_,1,X_INTRODUCED_86_):: defines_var(X_INTRODUCED_86_);
constraint int_eq_reif(X_INTRODUCED_8_,1,X_INTRODUCED_87_):: defines_var(X_INTRODUCED_87_);
constraint int_le_reif(X_INTRODUCED_4_,2,X_INTRODUCED_89_):: defines_var(X_INTRODUCED_89_);
constraint int_eq_reif(X_INTRODUCED_8_,2,X_INTRODUCED_90_):: defines_var(X_INTRODUCED_90_);
constraint int_le_reif(X_INTRODUCED_4_,3,X_INTRODUCED_92_):: defines_var(X_INTRODUCED_92_);
constraint int_eq_reif(X_INTRODUCED_8_,3,X_INTRODUCED_93_):: defines_var(X_INTRODUCED_93_);
constraint int_eq_reif(X_INTRODUCED_8_,4,X_INTRODUCED_96_):: defines_var(X_INTRODUCED_96_);
constraint int_le_reif(X_INTRODUCED_5_,1,X_INTRODUCED_99_):: defines_var(X_INTRODUCED_99_);
constraint int_eq_reif(X_INTRODUCED_9_,1,X_INTRODUCED_100_):: defines_var(X_INTRODUCED_100_);
constraint int_le_reif(X_INTRODUCED_5_,2,X_INTRODUCED_102_):: defines_var(X_INTRODUCED_102_);
constraint int_eq_reif(X_INTRODUCED_9_,2,X_INTRODUCED_103_):: defines_var(X_INTRODUCED_103_);
constraint int_le_reif(X_INTRODUCED_5_,3,X_INTRODUCED_105_):: defines_var(X_INTRODUCED_105_);
constraint int_eq_reif(X_INTRODUCED_9_,3,X_INTRODUCED_106_):: defines_var(X_INTRODUCED_106_);
constraint int_le_reif(X_INTRODUCED_5_,4,X_INTRODUCED_108_):: defines_var(X_INTRODUCED_108_);
constraint int_eq_reif(X_INTRODUCED_9_,4,X_INTRODUCED_109_):: defines_var(X_INTRODUCED_109_);
constraint int_le_reif(X_INTRODUCED_6_,1,X_INTRODUCED_112_):: defines_var(X_INTRODUCED_112_);
constraint int_eq_reif(X_INTRODUCED_10_,1,X_INTRODUCED_113_):: defines_var(X_INTRODUCED_113_);
constraint int_le_reif(X_INTRODUCED_6_,2,X_INTRODUCED_115_):: defines_var(X_INTRODUCED_115_);
constraint int_eq_reif(X_INTRODUCED_10_,2,X_INTRODUCED_116_):: defines_var(X_INTRODUCED_116_);
constraint int_le_reif(X_INTRODUCED_6_,3,X_INTRODUCED_118_):: defines_var(X_INTRODUCED_118_);
constraint int_eq_reif(X_INTRODUCED_10_,3,X_INTRODUCED_119_):: defines_var(X_INTRODUCED_119_);
constraint int_le_reif(X_INTRODUCED_6_,4,X_INTRODUCED_121_):: defines_var(X_INTRODUCED_121_);
constraint int_eq_reif(X_INTRODUCED_10_,4,X_INTRODUCED_122_):: defines_var(X_INTRODUCED_122_);
constraint int_le_reif(X_INTRODUCED_7_,1,X_INTRODUCED_125_):: defines_var(X_INTRODUCED_125_);
constraint int_eq_reif(X_INTRODUCED_11_,1,X_INTRODUCED_126_):: defines_var(X_INTRODUCED_126_);
constraint int_le_reif(X_INTRODUCED_7_,2,X_INTRODUCED_128_):: defines_var(X_INTRODUCED_128_);
constraint int_eq_reif(X_INTRODUCED_11_,2,X_INTRODUCED_129_):: defines_var(X_INTRODUCED_129_);
constraint int_le_reif(X_INTRODUCED_7_,3,X_INTRODUCED_131_):: defines_var(X_INTRODUCED_131_);
constraint int_eq_reif(X_INTRODUCED_11_,3,X_INTRODUCED_132_):: defines_var(X_INTRODUCED_132_);
constraint int_eq_reif(X_INTRODUCED_11_,4,X_INTRODUCED_135_):: defines_var(X_INTRODUCED_135_);
constraint int_le_reif(X_INTRODUCED_8_,1,X_INTRODUCED_138_):: defines_var(X_INTRODUCED_138_);
constraint int_eq_reif(X_INTRODUCED_12_,1,X_INTRODUCED_139_):: defines_var(X_INTRODUCED_139_);
constraint int_le_reif(X_INTRODUCED_8_,2,X_INTRODUCED_141_):: defines_var(X_INTRODUCED_141_);
constraint int_eq_reif(X_INTRODUCED_12_,2,X_INTRODUCED_142_):: defines_var(X_INTRODUCED_142_);
constraint int_le_reif(X_INTRODUCED_8_,3,X_INTRODUCED_144_):: defines_var(X_INTRODUCED_144_);
constraint int_eq_reif(X_INTRODUCED_12_,3,X_INTRODUCED_145_):: defines_var(X_INTRODUCED_145_);
constraint int_le_reif(X_INTRODUCED_9_,1,X_INTRODUCED_151_):: defines_var(X_INTRODUCED_151_);
constraint int_eq_reif(X_INTRODUCED_13_,1,X_INTRODUCED_152_):: defines_var(X_INTRODUCED_152_);
constraint int_le_reif(X_INTRODUCED_9_,2,X_INTRODUCED_154_):: defines_var(X_INTRODUCED_154_);
constraint int_eq_reif(X_INTRODUCED_13_,2,X_INTRODUCED_155_):: defines_var(X_INTRODUCED_155_);
constraint int_le_reif(X_INTRODUCED_9_,3,X_INTRODUCED_157_):: defines_var(X_INTRODUCED_157_);
constraint int_eq_reif(X_INTRODUCED_13_,3,X_INTRODUCED_158_):: defines_var(X_INTRODUCED_158_);
constraint int_le_reif(X_INTRODUCED_9_,4,X_INTRODUCED_160_):: defines_var(X_INTRODUCED_160_);
constraint int_eq_reif(X_INTRODUCED_13_,4,X_INTRODUCED_161_):: defines_var(X_INTRODUCED_161_);
constraint int_le_reif(X_INTRODUCED_10_,1,X_INTRODUCED_164_):: defines_var(X_INTRODUCED_164_);
constraint int_eq_reif(X_INTRODUCED_14_,1,X_INTRODUCED_165_):: defines_var(X_INTRODUCED_165_);
constraint int_le_reif(X_INTRODUCED_10_,2,X_INTRODUCED_167_):: defines_var(X_INTRODUCED_167_);
constraint int_eq_reif(X_INTRODUCED_14_,2,X_INTRODUCED_168_):: defines_var(X_INTRODUCED_168_);
constraint int_le_reif(X_INTRODUCED_10_,3,X_INTRODUCED_170_):: defines_var(X_INTRODUCED_170_);
constraint int_eq_reif(X_INTRODUCED_14_,3,X_INTRODUCED_171_):: defines_var(X_INTRODUCED_171_);
constraint int_le_reif(X_INTRODUCED_10_,4,X_INTRODUCED_173_):: defines_var(X_INTRODUCED_173_);
constraint int_eq_reif(X_INTRODUCED_14_,4,X_INTRODUCED_174_):: defines_var(X_INTRODUCED_174_);
constraint int_le_reif(X_INTRODUCED_11_,1,X_INTRODUCED_177_):: defines_var(X_INTRODUCED_177_);
constraint int_eq_reif(X_INTRODUCED_15_,1,X_INTRODUCED_178_):: defines_var(X_INTRODUCED_178_);
constraint int_le_reif(X_INTRODUCED_11_,2,X_INTRODUCED_180_):: defines_var(X_INTRODUCED_180_);
constraint int_eq_reif(X_INTRODUCED_15_,2,X_INTRODUCED_181_):: defines_var(X_INTRODUCED_181_);
constraint int_le_reif(X_INTRODUCED_11_,3,X_INTRODUCED_183_):: defines_var(X_INTRODUCED_183_);
constraint int_eq_reif(X_INTRODUCED_15_,3,X_INTRODUCED_184_):: defines_var(X_INTRODUCED_184_);
constraint int_le_reif(X_INTRODUCED_12_,1,X_INTRODUCED_190_):: defines_var(X_INTRODUCED_190_);
constraint int_le_reif(X_INTRODUCED_12_,2,X_INTRODUCED_192_):: defines_var(X_INTRODUCED_192_);
constraint int_le_reif(X_INTRODUCED_12_,4,X_INTRODUCED_196_):: defines_var(X_INTRODUCED_196_);
constraint int_le_reif(X_INTRODUCED_13_,1,X_INTRODUCED_199_):: defines_var(X_INTRODUCED_199_);
constraint int_le_reif(X_INTRODUCED_13_,2,X_INTRODUCED_201_):: defines_var(X_INTRODUCED_201_);
constraint int_le_reif(X_INTRODUCED_13_,3,X_INTRODUCED_203_):: defines_var(X_INTRODUCED_203_);
constraint int_le_reif(X_INTRODUCED_14_,1,X_INTRODUCED_208_):: defines_var(X_INTRODUCED_208_);
constraint int_le_reif(X_INTRODUCED_14_,2,X_INTRODUCED_210_):: defines_var(X_INTRODUCED_210_);
constraint int_le_reif(X_INTRODUCED_14_,3,X_INTRODUCED_212_):: defines_var(X_INTRODUCED_212_);
constraint int_le_reif(X_INTRODUCED_15_,1,X_INTRODUCED_217_):: defines_var(X_INTRODUCED_217_);
constraint int_le_reif(X_INTRODUCED_15_,2,X_INTRODUCED_219_):: defines_var(X_INTRODUCED_219_);
constraint int_le_reif(X_INTRODUCED_15_,4,X_INTRODUCED_223_):: defines_var(X_INTRODUCED_223_);
solve :: int_search(X_INTRODUCED_225_,largest,indomain_max,complete) maximize objective;
